<number of tasks>
50

<cycle time>
1000

<order strength>
0.195


<task times>
1 144
2 50
3 35
4 104
5 128
6 100
7 103
8 218
9 174
10 150
11 178
12 75
13 129
14 56
15 201
16 30
17 223
18 226
19 274
20 79
21 90
22 27
23 102
24 65
25 285
26 122
27 207
28 114
29 207
30 23
31 237
32 138
33 168
34 71
35 318
36 161
37 113
38 120
39 162
40 264
41 114
42 134
43 168
44 101
45 108
46 31
47 242
48 138
49 97
50 186

<precedence relations>
1,4
1,5
1,8
1,9
2,6
2,7
4,10
5,11
6,12
6,15
7,13
7,17
7,24
8,22
8,48
9,14
9,16
9,39
9,46
10,22
11,19
12,18
13,20
14,24
17,21
17,23
17,29
18,30
19,26
20,28
21,25
21,27
21,31
21,48
22,29
23,32
24,29
24,38
24,50
25,33
26,36
27,37
28,38
29,34
30,40
31,35
32,39
32,41
32,47
33,45
34,42
35,43
36,44
37,46
38,47
38,48
42,49
43,50
44,49

<end>
